data;

param n := 12;

param p := 5;

param AG :
	1	2	3	4	5	6	7	8	9	10	11	12 :=
1	0	1	1	0	0	0	0	0	0	0	0	0
2	1	0	1	0	0	0	0	0	0	0	0	0
3	1	1	0	0	0	0	0	0	0	0	0	0
4	0	0	0	0	1	1	0	0	0	0	0	0
5	0	0	0	1	0	1	0	0	0	0	0	0
6	0	0	0	1	1	0	0	0	0	0	0	0
7	0	0	0	0	0	0	0	1	1	0	0	0
8	0	0	0	0	0	0	1	0	1	0	0	0
9	0	0	0	0	0	0	1	1	0	0	0	0
10	0	0	0	0	0	0	0	0	0	0	1	1
11	0	0	0	0	0	0	0	0	0	1	0	1
12	0	0	0	0	0	0	0	0	0	1	1	0
;

param PI :
	1	2	3	4	5 :=
1	2.0858	1.9051	1.6944	2.1881	1.8083
2	2.0858	1.9051	1.6944	2.1881	1.8083
3	2.0858	1.9051	1.6944	2.1881	1.8083
4	2.1017	1.9425	1.7333	2.2871	1.8542
5	2.1017	1.9425	1.7333	2.2871	1.8542
6	2.1017	1.9425	1.7333	2.2871	1.8542
7	2.0642	1.9378	1.5444	2.069	1.6667
8	2.0642	1.9378	1.5444	2.069	1.6667
9	2.0642	1.9378	1.5444	2.069	1.6667
10	2.0233	1.8479	1.6722	2.1648	1.7833
11	2.0233	1.8479	1.6722	2.1648	1.7833
12	2.0233	1.8479	1.6722	2.1648	1.7833
;

param CA :
	1	2	3	4	5	6	7	8	9	10	11	12 :=
1	0.0	0.0	0.0	6.0	6.0	6.0	6.0	6.0	6.0	18.0	18.0	18.0
2	0.0	0.0	0.0	6.0	6.0	6.0	6.0	6.0	6.0	18.0	18.0	18.0
3	0.0	0.0	0.0	6.0	6.0	6.0	6.0	6.0	6.0	18.0	18.0	18.0
4	6.0	6.0	6.0	0.0	0.0	0.0	0.0	0.0	0.0	6.0	6.0	6.0
5	6.0	6.0	6.0	0.0	0.0	0.0	0.0	0.0	0.0	6.0	6.0	6.0
6	6.0	6.0	6.0	0.0	0.0	0.0	0.0	0.0	0.0	6.0	6.0	6.0
7	6.0	6.0	6.0	0.0	0.0	0.0	0.0	0.0	0.0	0.0	0.0	0.0
8	6.0	6.0	6.0	0.0	0.0	0.0	0.0	0.0	0.0	0.0	0.0	0.0
9	6.0	6.0	6.0	0.0	0.0	0.0	0.0	0.0	0.0	0.0	0.0	0.0
10	18.0	18.0	18.0	6.0	6.0	6.0	0.0	0.0	0.0	0.0	0.0	0.0
11	18.0	18.0	18.0	6.0	6.0	6.0	0.0	0.0	0.0	0.0	0.0	0.0
12	18.0	18.0	18.0	6.0	6.0	6.0	0.0	0.0	0.0	0.0	0.0	0.0
;

param CP :
	1	2	3	4	5 :=
1	0.0	1.5614	1.4133	1.6507	1.5485
2	1.5614	0.0	1.0439	1.5443	1.8335
3	1.4133	1.0439	0.0	1.2275	1.2111
4	1.6507	1.5443	1.2275	0.0	1.8064
5	1.5485	1.8335	1.2111	1.8064	0.0
;

